(set-logic QF_S)
(declare-fun var0 () String)
(assert (str.in.re var0 (re.++ (re.* (re.* (str.to.re "00"))) (re.++ (re.* (re.* (str.to.re "1"))) (re.++ (re.+ (re.union (str.to.re "2") (str.to.re "333"))) (re.++ (re.union (re.* (str.to.re "44")) (re.union (str.to.re "55") (str.to.re "66"))) (re.++ (re.union (re.* (str.to.re "77")) (re.* (str.to.re "888"))) (re.++ (re.union (re.+ (str.to.re "999")) (re.+ (str.to.re "a"))) (re.++ (re.union (re.* (str.to.re "bbb")) (re.+ (str.to.re "ccc"))) (re.++ (re.* (re.+ (str.to.re "ddd"))) (re.++ (re.union (re.+ (str.to.re "e")) (re.+ (str.to.re "ff"))) (re.++ (re.union (re.union (str.to.re "g") (str.to.re "hh")) (re.union (str.to.re "iii") (str.to.re "j"))) (re.++ (re.* (re.union (str.to.re "k") (str.to.re "ll"))) (re.++ (re.* (re.+ (str.to.re "m"))) (re.++ (re.+ (re.union (str.to.re "nn") (str.to.re "ooo"))) (re.++ (re.union (re.* (str.to.re "pp")) (re.* (str.to.re "qqq"))) (re.++ (re.+ (re.union (str.to.re "r") (str.to.re "sss"))) (re.++ (re.* (re.union (str.to.re "ttt") (str.to.re "uu"))) (re.++ (re.+ (re.+ (str.to.re "vvv"))) (re.++ (re.union (re.union (str.to.re "w") (str.to.re "x")) (re.+ (str.to.re "y"))) (re.++ (re.* (re.* (str.to.re "zz"))) (re.++ (re.* (re.union (str.to.re "AA") (str.to.re "BBB"))) (re.++ (re.union (re.+ (str.to.re "CC")) (re.* (str.to.re "DDD"))) (re.++ (re.* (re.* (str.to.re "EEE"))) (re.++ (re.union (re.+ (str.to.re "F")) (re.* (str.to.re "GG"))) (re.++ (re.+ (re.union (str.to.re "HHH") (str.to.re "III"))) (re.++ (re.union (re.* (str.to.re "J")) (re.union (str.to.re "KKK") (str.to.re "LL"))) (re.++ (re.union (re.union (str.to.re "M") (str.to.re "NN")) (re.* (str.to.re "O"))) (re.++ (re.union (re.* (str.to.re "P")) (re.union (str.to.re "QQ") (str.to.re "RRR"))) (re.++ (re.union (re.+ (str.to.re "SS")) (re.* (str.to.re "T"))) (re.++ (re.+ (re.union (str.to.re "U") (str.to.re "V"))) (re.++ (re.* (re.+ (str.to.re "WW"))) (re.++ (re.* (re.+ (str.to.re "XXX"))) (re.++ (re.+ (re.union (str.to.re "Y") (str.to.re "Z"))) (re.++ (re.* (re.union (str.to.re "!!!") (str.to.re """"""))) (re.++ (re.union (re.* (str.to.re "###")) (re.union (str.to.re "$$") (str.to.re "%%"))) (re.++ (re.+ (re.* (str.to.re "&"))) (re.++ (re.+ (re.* (str.to.re "''"))) (re.++ (re.union (re.+ (str.to.re "((")) (re.* (str.to.re ")"))) (re.++ (re.* (re.union (str.to.re "***") (str.to.re "++"))) (re.++ (re.union (re.+ (str.to.re ",")) (re.+ (str.to.re "--"))) (re.++ (re.union (re.+ (str.to.re "..")) (re.* (str.to.re "/"))) (re.++ (re.+ (re.union (str.to.re ":") (str.to.re ";;"))) (re.++ (re.* (re.+ (str.to.re "<"))) (re.++ (re.union (re.+ (str.to.re "===")) (re.* (str.to.re ">>>"))) (re.++ (re.* (re.* (str.to.re "??"))) (re.++ (re.* (re.* (str.to.re "@@@"))) (re.++ (re.union (re.union (str.to.re "[[") (str.to.re "\\")) (re.* (str.to.re "]]]"))) (re.++ (re.+ (re.* (str.to.re "^"))) (re.++ (re.union (re.union (str.to.re "__") (str.to.re "``")) (re.* (str.to.re "{{{"))) (re.++ (re.+ (re.union (str.to.re "||") (str.to.re "}"))) (re.++ (re.* (re.+ (str.to.re "~"))) (re.++ (re.* (re.* (str.to.re "00"))) (re.++ (re.+ (re.* (str.to.re "11"))) (re.++ (re.* (re.+ (str.to.re "222"))) (re.++ (re.union (re.* (str.to.re "333")) (re.* (str.to.re "44"))) (re.++ (re.+ (re.* (str.to.re "5"))) (re.++ (re.* (re.union (str.to.re "6") (str.to.re "7"))) (re.++ (re.+ (re.+ (str.to.re "8"))) (re.++ (re.union (re.* (str.to.re "999")) (re.+ (str.to.re "aaa"))) (re.++ (re.* (re.* (str.to.re "bbb"))) (re.++ (re.union (re.+ (str.to.re "ccc")) (re.union (str.to.re "dd") (str.to.re "ee"))) (re.++ (re.+ (re.+ (str.to.re "fff"))) (re.++ (re.+ (re.union (str.to.re "g") (str.to.re "hhh"))) (re.++ (re.union (re.* (str.to.re "iii")) (re.* (str.to.re "j"))) (re.++ (re.* (re.union (str.to.re "kkk") (str.to.re "ll"))) (re.++ (re.* (re.* (str.to.re "mm"))) (re.++ (re.union (re.* (str.to.re "nnn")) (re.union (str.to.re "oo") (str.to.re "ppp"))) (re.++ (re.* (re.union (str.to.re "q") (str.to.re "rrr"))) (re.++ (re.union (re.union (str.to.re "ss") (str.to.re "ttt")) (re.+ (str.to.re "uu"))) (re.++ (re.union (re.+ (str.to.re "v")) (re.* (str.to.re "w"))) (re.++ (re.union (re.+ (str.to.re "x")) (re.+ (str.to.re "y"))) (re.++ (re.* (re.union (str.to.re "z") (str.to.re "AAA"))) (re.++ (re.union (re.+ (str.to.re "BBB")) (re.union (str.to.re "CC") (str.to.re "DDD"))) (re.++ (re.* (re.+ (str.to.re "EEE"))) (re.++ (re.* (re.+ (str.to.re "FF"))) (re.++ (re.union (re.union (str.to.re "GGG") (str.to.re "H")) (re.* (str.to.re "II"))) (re.++ (re.+ (re.+ (str.to.re "JJ"))) (re.++ (re.* (re.union (str.to.re "KKK") (str.to.re "LL"))) (re.++ (re.union (re.+ (str.to.re "M")) (re.+ (str.to.re "NNN"))) (re.++ (re.union (re.+ (str.to.re "OOO")) (re.union (str.to.re "P") (str.to.re "Q"))) (re.++ (re.union (re.* (str.to.re "R")) (re.* (str.to.re "S"))) (re.++ (re.union (re.+ (str.to.re "TTT")) (re.+ (str.to.re "U"))) (re.++ (re.union (re.union (str.to.re "V") (str.to.re "W")) (re.+ (str.to.re "XXX"))) (re.++ (re.+ (re.+ (str.to.re "Y"))) (re.++ (re.+ (re.union (str.to.re "ZZ") (str.to.re "!!"))) (re.++ (re.+ (re.union (str.to.re """""") (str.to.re "##"))) (re.++ (re.union (re.* (str.to.re "$$")) (re.+ (str.to.re "%%%"))) (re.++ (re.* (re.* (str.to.re "&&&"))) (re.++ (re.+ (re.union (str.to.re "''") (str.to.re "((("))) (re.++ (re.union (re.* (str.to.re ")")) (re.union (str.to.re "**") (str.to.re "+++"))) (re.++ (re.union (re.+ (str.to.re ",,")) (re.union (str.to.re "-") (str.to.re "."))) (re.++ (re.* (re.* (str.to.re "//"))) (re.++ (re.+ (re.union (str.to.re ":") (str.to.re ";"))) (re.++ (re.* (re.union (str.to.re "<<<") (str.to.re "==="))) (re.++ (re.+ (re.* (str.to.re ">"))) (re.++ (re.+ (re.union (str.to.re "?") (str.to.re "@"))) (re.++ (re.union (re.union (str.to.re "[[[") (str.to.re "\\\\\\")) (re.union (str.to.re "]]]") (str.to.re "^^"))) (re.++ (re.+ (re.* (str.to.re "__"))) (re.++ (re.+ (re.+ (str.to.re "`"))) (re.++ (re.* (re.* (str.to.re "{"))) (re.++ (re.union (re.union (str.to.re "|||") (str.to.re "}}")) (re.* (str.to.re "~~"))) (re.++ (re.union (re.* (str.to.re "000")) (re.* (str.to.re "11"))) (re.++ (re.* (re.* (str.to.re "22"))) (re.++ (re.+ (re.union (str.to.re "33") (str.to.re "44"))) (re.++ (re.* (re.* (str.to.re "555"))) (re.++ (re.+ (re.* (str.to.re "66"))) (re.++ (re.union (re.union (str.to.re "77") (str.to.re "88")) (re.* (str.to.re "99"))) (re.++ (re.union (re.* (str.to.re "aaa")) (re.* (str.to.re "b"))) (re.++ (re.+ (re.* (str.to.re "c"))) (re.++ (re.+ (re.union (str.to.re "d") (str.to.re "eee"))) (re.++ (re.+ (re.+ (str.to.re "f"))) (re.++ (re.union (re.+ (str.to.re "gg")) (re.+ (str.to.re "h"))) (re.++ (re.* (re.* (str.to.re "i"))) (re.++ (re.union (re.union (str.to.re "j") (str.to.re "kk")) (re.union (str.to.re "lll") (str.to.re "m"))) (re.++ (re.+ (re.union (str.to.re "nn") (str.to.re "ooo"))) (re.++ (re.+ (re.* (str.to.re "p"))) (re.++ (re.+ (re.+ (str.to.re "qq"))) (re.++ (re.+ (re.+ (str.to.re "rrr"))) (re.++ (re.* (re.+ (str.to.re "sss"))) (re.++ (re.* (re.union (str.to.re "t") (str.to.re "uuu"))) (re.++ (re.* (re.* (str.to.re "vvv"))) (re.++ (re.* (re.union (str.to.re "ww") (str.to.re "xx"))) (re.++ (re.union (re.union (str.to.re "yy") (str.to.re "z")) (re.* (str.to.re "AA"))) (re.++ (re.+ (re.+ (str.to.re "B"))) (re.++ (re.* (re.* (str.to.re "C"))) (re.++ (re.* (re.* (str.to.re "DDD"))) (re.++ (re.union (re.* (str.to.re "EEE")) (re.union (str.to.re "FF") (str.to.re "GGG"))) (re.++ (re.* (re.* (str.to.re "H"))) (re.++ (re.union (re.union (str.to.re "I") (str.to.re "J")) (re.union (str.to.re "KK") (str.to.re "LL"))) (re.++ (re.+ (re.+ (str.to.re "MMM"))) (re.++ (re.* (re.union (str.to.re "N") (str.to.re "O"))) (re.++ (re.* (re.+ (str.to.re "PPP"))) (re.++ (re.union (re.union (str.to.re "QQ") (str.to.re "RRR")) (re.+ (str.to.re "SSS"))) (re.++ (re.union (re.* (str.to.re "TTT")) (re.* (str.to.re "UU"))) (re.++ (re.union (re.union (str.to.re "VV") (str.to.re "W")) (re.union (str.to.re "XXX") (str.to.re "Y"))) (re.++ (re.* (re.* (str.to.re "ZZ"))) (re.++ (re.+ (re.union (str.to.re "!") (str.to.re """"""""))) (re.++ (re.+ (re.* (str.to.re "#"))) (re.++ (re.+ (re.* (str.to.re "$"))) (re.++ (re.+ (re.+ (str.to.re "%%%"))) (re.++ (re.* (re.union (str.to.re "&&") (str.to.re "'''"))) (re.++ (re.+ (re.union (str.to.re "((") (str.to.re "))"))) (re.++ (re.* (re.union (str.to.re "*") (str.to.re "+"))) (re.++ (re.* (re.+ (str.to.re ","))) (re.++ (re.union (re.* (str.to.re "---")) (re.union (str.to.re ".") (str.to.re "//"))) (re.++ (re.union (re.union (str.to.re "::") (str.to.re ";;")) (re.+ (str.to.re "<<"))) (re.++ (re.union (re.union (str.to.re "==") (str.to.re ">>")) (re.* (str.to.re "???"))) (re.++ (re.+ (re.+ (str.to.re "@@@"))) (re.++ (re.union (re.* (str.to.re "[[[")) (re.+ (str.to.re "\\\\"))) (re.++ (re.+ (re.union (str.to.re "]") (str.to.re "^^^"))) (re.++ (re.union (re.+ (str.to.re "_")) (re.union (str.to.re "```") (str.to.re "{{"))) (re.++ (re.+ (re.+ (str.to.re "|"))) (re.++ (re.* (re.union (str.to.re "}}}") (str.to.re "~~~"))) (re.++ (re.union (re.* (str.to.re "000")) (re.+ (str.to.re "111"))) (re.++ (re.* (re.* (str.to.re "22"))) (re.++ (re.union (re.union (str.to.re "33") (str.to.re "444")) (re.+ (str.to.re "55"))) (re.++ (re.union (re.+ (str.to.re "6")) (re.* (str.to.re "7"))) (re.++ (re.* (re.union (str.to.re "8") (str.to.re "999"))) (re.++ (re.* (re.union (str.to.re "a") (str.to.re "bb"))) (re.++ (re.union (re.+ (str.to.re "cc")) (re.* (str.to.re "dd"))) (re.++ (re.union (re.+ (str.to.re "eee")) (re.union (str.to.re "f") (str.to.re "gg"))) (re.++ (re.+ (re.union (str.to.re "hh") (str.to.re "i"))) (re.++ (re.* (re.* (str.to.re "j"))) (re.++ (re.+ (re.* (str.to.re "kk"))) (re.++ (re.union (re.union (str.to.re "l") (str.to.re "m")) (re.* (str.to.re "nn"))) (re.++ (re.+ (re.+ (str.to.re "o"))) (re.++ (re.* (re.union (str.to.re "p") (str.to.re "qq"))) (re.++ (re.* (re.* (str.to.re "rrr"))) (re.++ (re.+ (re.union (str.to.re "ss") (str.to.re "t"))) (re.* (re.* (str.to.re "uu")))))))))))))))))))))))))))))))))))))))))))))))))))))))))))))))))))))))))))))))))))))))))))))))))))))))))))))))))))))))))))))))))))))))))))))))))))))))))))))))))))))))))))))
(check-sat)